!aug-cc-pVDZ B3LYP NMR

*xyzfile 1 1 guess.xyz

