!cc-pvdz OLYP NMR

*xyzfile 0 1 guess.xyz

