!aug-cc-pVDZ B3LYP NMR

*xyzfile 0 1 guess.xyz

