!cc-pvdz BP86 NMR

*xyzfile 0 1 guess.xyz

