!AM1 opt freq

*xyz 0 1
N 0 0 0
N 1 1 1
end

